WARNING: for repeatability, setting FPU to use double precision
============================[ Problem Statistics ]=============================
|                                                                             |
|  Number of variables:        170286                                         |
|  Number of clauses:          394865                                         |
|  Parse time:                   0.13 s                                       |
|                                                                             |
============================[ Search Statistics ]==============================
| Conflicts |          ORIGINAL         |          LEARNT          | Progress |
|           |    Vars  Clauses Literals |    Limit  Clauses Lit/Cl |          |
===============================================================================
|       100 |   93742   379238   850418 |   139053      100     18 | 44.950 % |
|       250 |   93742   379238   850418 |   152959      250     21 | 44.950 % |
|       475 |   93742   379238   850418 |   168255      475     27 | 44.950 % |
|       812 |   93742   379238   850418 |   185080      812     36 | 44.950 % |
===============================================================================
restarts              : 8
conflicts             : 1255           (2209 /sec)
decisions             : 9405           (0.00 % random) (16557 /sec)
propagations          : 3146975        (5540108 /sec)
conflict literals     : 94566          (5.72 % deleted)
Memory used           : 46.00 MB
CPU time              : 0.568035 s

SATISFIABLE
